
Log started (V11.0.0) Mon May 26 17:04:19 2008

Tried aggregator 1 time.
Reduced MIP has 550 rows, 25001 columns, and 50050 nonzeros.
Presolve time =    0.19 sec.
Clique table members: 500.
MIP emphasis: balance optimality and feasibility.
MIP search method: dynamic search.
Parallel mode: none, using 1 thread.
Root relaxation solution time =    2.17 sec.

        Nodes                                         Cuts/
   Node  Left     Objective  IInf  Best Integer     Best Node    ItCnt     Gap

*     0+    0                        30339.0000      511.6600     1214   98.31%
*     0+    0                          578.0000      511.6600     1214   11.48%
      0     0      512.0000    92      578.0000      Fract: 9     1229   11.42%
*     0+    0                          572.0000      512.0000     1229   10.49%
      0     0      512.0000    99      572.0000     Covers: 3     1264   10.49%
*     0+    0                          569.0000      512.0000     1264   10.02%
      0     0      512.0000   100      569.0000     Covers: 1     1268   10.02%
*     0+    0                          567.0000      512.0000     1268    9.70%
*     0+    0                          563.0000      512.0000     1268    9.06%
*     0+    0                          562.0000      512.0000     1268    8.90%
*     0+    0                          559.0000      512.0000     1268    8.41%
*     0+    0                          555.0000      512.0000     1268    7.75%
      0     2      512.0000   100      555.0000      512.0000     1268    7.75%
*    20+   20                          554.0000      512.0000     1775    7.58%
*    30+   30                          553.0000      512.0000     2029    7.41%
*    40+   40                          552.0000      512.0000     2215    7.25%
*    60+   60                          551.0000      512.0000     2888    7.08%
*    60+   60                          550.0000      512.0000     2888    6.91%
*    70+   70                          548.0000      512.0000     3374    6.57%
*    70+   70                          547.0000      512.0000     3374    6.40%
*    80+   80                          546.0000      512.0000     3912    6.23%
*    80+   80                          545.0000      512.0000     3912    6.06%
*   100+  100                          543.0000      512.0000     5183    5.71%
    100   102      512.0000    86      543.0000      512.0000     5183    5.71%
*   120+  120                          542.0000      512.0000     6627    5.54%
*   130+  130                          541.0000      512.0000     7339    5.36%
*   140+  140                          540.0000      512.0000     8089    5.19%
*   160+  160                          539.0000      512.0000     9462    5.01%
*   160+  160                          538.0000      512.0000     9462    4.83%
*   200+  200                          536.0000      512.0000    13782    4.48%
*   200+  200                          535.0000      512.0000    13782    4.30%
    200   202      512.0000    94      535.0000      512.0000    13782    4.30%
*   210+  210                          534.0000      512.0000    15192    4.12%
*   210+  210                          533.0000      512.0000    15192    3.94%
*   230+  230                          532.0000      512.0000    17684    3.76%
*   250+  250                          531.0000      512.0000    21345    3.58%
*   260+  260                          530.0000      512.0000    22702    3.40%
*   260+  260                          528.0000      512.0000    22702    3.03%
    300   295      513.0000    81      528.0000      512.0000    27170    3.03%
*   310+  303                          527.0000      512.0000    28118    2.85%
*   370+  363                          526.0000      512.0000    33604    2.66%
    400   395      513.0000    76      526.0000      512.0000    38941    2.66%
*   420+  413                          525.0000      512.0000    42063    2.48%
*   470+  463                          524.0000      512.0000    59226    2.29%
    500   495      513.0000    94      524.0000      512.0000    76748    2.29%
*   530+  520                          523.0000      512.0000    97966    2.10%
*   540+  530                          522.0000      512.0000   106062    1.92%
*   600+  580                          521.0000      512.0000   166163    1.73%
    600   582      513.0000    93      521.0000      512.0000   166163    1.73%
*   610+  589                          520.0000      512.0000   174924    1.54%
    700   676      514.0000    89      520.0000      512.0000   225931    1.54%
    800   717      512.0000    89      520.0000      512.0000   257907    1.54%
    900   745      513.0000    84      520.0000      512.0000   266246    1.54%
   1000   770      514.0000    86      520.0000      512.0000   283424    1.54%
Elapsed time = 380.59 sec. (tree size = 10.73 MB, solutions = 40)
   1100   788      514.0000    86      520.0000      512.0000   321501    1.54%
   1200   818      515.0000    92      520.0000      512.0000   344549    1.54%
   1300   844      515.0000    88      520.0000      512.0000   392260    1.54%
   1400   858      515.0000    93      520.0000      512.0000   406359    1.54%
   1500   877      516.0000    76      520.0000      512.0000   420687    1.54%
   1600   913      516.0000    80      520.0000      512.0000   426835    1.54%
   1700   949      517.0000    73      520.0000      512.0000   453040    1.54%
   1800  1036      517.0000    86      520.0000      512.0000   470901    1.54%
   1900  1134      518.0000    81      520.0000      512.0000   487228    1.54%
   2000  1231      519.0000    77      520.0000      512.0000   495369    1.54%
Elapsed time = 647.72 sec. (tree size = 18.85 MB, solutions = 40)
   2100  1319      512.0000    98      520.0000      512.0000   505340    1.54%
   2200  1419      512.0000    90      520.0000      512.0000   511269    1.54%
   2300  1516      513.0000    93      520.0000      512.0000   520105    1.54%
   2400  1616      513.0000    93      520.0000      512.0000   537449    1.54%
   2500  1707      514.0000    87      520.0000      512.0000   558087    1.54%
   2600  1807      514.0000    92      520.0000      512.0000   593605    1.54%
   2700  1900      515.0000    89      520.0000      512.0000   620616    1.54%
   2800  2000      515.0000    87      520.0000      512.0000   661643    1.54%
   2900  2099      516.0000    80      520.0000      512.0000   683337    1.54%
   3000  2194      517.0000    80      520.0000      512.0000   717112    1.54%
Elapsed time = 940.13 sec. (tree size = 34.17 MB, solutions = 40)
   3100  2290      518.0000    69      520.0000      512.0000   725583    1.54%
   3200  2386      519.0000    70      520.0000      512.0000   733329    1.54%
   3300  2486      519.0000    67      520.0000      512.0000   734800    1.54%
   3400  2582      519.0000    72      520.0000      512.0000   737633    1.54%
   3500  2668      512.0000    92      520.0000      512.0000   785955    1.54%
   3600  2763      512.0000    84      520.0000      512.0000   792485    1.54%
   3700  2852      512.0000    90      520.0000      512.0000   796269    1.54%
   3800  2947      513.0000    82      520.0000      512.0000   804277    1.54%
   3900  3047      513.0000    85      520.0000      512.0000   815828    1.54%
   4000  3146      514.0000    89      520.0000      512.0000   824640    1.54%
Elapsed time = 1135.69 sec. (tree size = 52.36 MB, solutions = 40)
   4100  3246      514.0000    92      520.0000      512.0000   877577    1.54%
   4200  3345      513.0000    92      520.0000      512.0000   914199    1.54%
   4300  3445      513.0000    95      520.0000      512.0000   961178    1.54%
   4400  3544      513.0000    89      520.0000      512.0000   985000    1.54%
   4500  3644      513.0000    86      520.0000      512.0000  1045744    1.54%
   4600  3743      513.0000    85      520.0000      512.0000  1077633    1.54%
   4700  3843      513.0000    89      520.0000      512.0000  1182982    1.54%
   4800  3942      518.0000    53      520.0000      512.0000  1225797    1.54%
   4900  4042      518.0000    83      520.0000      512.0000  1241196    1.54%
   5000  4141      515.0000    82      520.0000      512.0000  1257624    1.54%
Elapsed time = 1637.22 sec. (tree size = 76.10 MB, solutions = 40)
   5100  4241      515.0000    83      520.0000      512.0000  1288102    1.54%
   5200  4340      518.0000    81      520.0000      512.0000  1321620    1.54%
   5300  4440      518.0000    85      520.0000      512.0000  1358436    1.54%
   5400  4538      513.0000    81      520.0000      512.0000  1393815    1.54%
   5500  4638      513.0000    82      520.0000      512.0000  1461609    1.54%
   5600  4737      513.0000    92      520.0000      512.0000  1506614    1.54%
   5700  4837      513.0000    82      520.0000      512.0000  1592146    1.54%
   5800  4936      513.0000    92      520.0000      512.0000  1635251    1.54%
   5900  5036      515.0000    86      520.0000      512.0000  1679965    1.54%
   6000  5135      513.0000    95      520.0000      512.0000  1720673    1.54%
Elapsed time = 2168.83 sec. (tree size = 101.54 MB, solutions = 40)
   6100  5235      513.0000    96      520.0000      512.0000  1799252    1.54%
   6200  5334      513.0000    91      520.0000      512.0000  1862314    1.54%
   6300  5434      513.0000    86      520.0000      512.0000  1929243    1.54%
   6400  5533      513.0000    91      520.0000      512.0000  1955835    1.54%
   6500  5633      513.0000    90      520.0000      512.0000  2006962    1.54%
   6600  5732      513.0000    91      520.0000      512.0000  2061704    1.54%
   6700  5832      513.0000    85      520.0000      512.0000  2140399    1.54%
   6800  5931      513.0000    88      520.0000      512.0000  2172302    1.54%
   6900  6031      513.0000    86      520.0000      512.0000  2196516    1.54%
Began writing nodes to disk (directory ./cpxa04064 created)
   7000  6130      513.0000   101      520.0000      512.0000  2240687    1.54%
Elapsed time = 2766.75 sec. (tree size = 128.67 MB, solutions = 40)
Nodefile size =  0.76 MB (0.48 MB after compression)
   7100  6230      513.0000    99      520.0000      512.0000  2320334    1.54%
   7200  6329      519.0000    64      520.0000      512.0000  2339237    1.54%
   7300  6429      519.0000    79      520.0000      512.0000  2350742    1.54%
   7400  6528      513.0000    94      520.0000      512.0000  2376291    1.54%
   7500  6628      517.0000    84      520.0000      512.0000  2401320    1.54%
   7600  6727      513.0000    92      520.0000      512.0000  2433318    1.54%
   7700  6827      513.0000    90      520.0000      512.0000  2519260    1.54%
   7800  6926      513.0000    93      520.0000      512.0000  2577067    1.54%
   7900  7026      513.0000    87      520.0000      512.0000  2669277    1.54%
   8000  7125      513.0000    89      520.0000      512.0000  2701580    1.54%
Elapsed time = 3347.20 sec. (tree size = 157.08 MB, solutions = 40)
Nodefile size = 29.72 MB (20.80 MB after compression)
   8100  7225      513.0000    97      520.0000      512.0000  2761821    1.54%
   8200  7324      513.0000    93      520.0000      512.0000  2775365    1.54%
   8300  7424      513.0000    94      520.0000      512.0000  2825896    1.54%
   8400  7522      513.0000    95      520.0000      512.0000  2870944    1.54%
   8500  7622      519.0000    41      520.0000      512.0000  2897809    1.54%
   8600  7721      513.0000    92      520.0000      512.0000  2935937    1.54%
   8700  7821      513.0000    87      520.0000      512.0000  3006945    1.54%
   8800  7920      513.0000    90      520.0000      512.0000  3038796    1.54%
   8900  8020      513.0000    96      520.0000      512.0000  3087631    1.54%
   9000  8119      513.0000    94      520.0000      512.0000  3119504    1.54%
Elapsed time = 3910.20 sec. (tree size = 186.44 MB, solutions = 40)
Nodefile size = 58.52 MB (39.54 MB after compression)
   9100  8219      513.0000   103      520.0000      512.0000  3169553    1.54%
   9200  8318      513.0000    86      520.0000      512.0000  3191382    1.54%
   9300  8418      513.0000   104      520.0000      512.0000  3258010    1.54%
   9400  8517      513.0000    93      520.0000      512.0000  3304035    1.54%
   9500  8617      513.0000    83      520.0000      512.0000  3380830    1.54%
   9600  8716      513.0000    85      520.0000      512.0000  3423469    1.54%
   9700  8816      513.0000    94      520.0000      512.0000  3496638    1.54%
   9800  8915      513.0000    96      520.0000      512.0000  3539836    1.54%
   9900  9015      513.0000    87      520.0000      512.0000  3607001    1.54%
  10000  9114      513.0000    86      520.0000      512.0000  3642941    1.54%
Elapsed time = 4582.95 sec. (tree size = 216.73 MB, solutions = 40)
Nodefile size = 89.10 MB (62.88 MB after compression)
  10100  9214      513.0000   101      520.0000      512.0000  3700011    1.54%
  10200  9313      513.0000    88      520.0000      512.0000  3748285    1.54%
  10300  9413      513.0000    93      520.0000      512.0000  3826388    1.54%
  10400  9512      513.0000    99      520.0000      512.0000  3855456    1.54%
  10500  9612      513.0000    85      520.0000      512.0000  3898969    1.54%
  10600  9711      513.0000    88      520.0000      512.0000  3940425    1.54%
  10700  9811      513.0000    93      520.0000      512.0000  4004215    1.54%
  10800  9910      513.0000    95      520.0000      512.0000  4042795    1.54%
  10900 10010      513.0000    98      520.0000      512.0000  4086973    1.54%
  11000 10109      513.0000    99      520.0000      512.0000  4117301    1.54%
Elapsed time = 5222.99 sec. (tree size = 247.66 MB, solutions = 40)
Nodefile size = 120.57 MB (86.91 MB after compression)
  11100 10209      513.0000    97      520.0000      512.0000  4185281    1.54%
  11200 10308      513.0000    85      520.0000      512.0000  4212193    1.54%
  11300 10408      517.0000    77      520.0000      512.0000  4232887    1.54%
  11400 10507      513.0000    90      520.0000      512.0000  4257076    1.54%
  11500 10607      513.0000    85      520.0000      512.0000  4287796    1.54%
  11600 10702      513.0000    95      520.0000      512.0000  4334138    1.54%
  11700 10802      513.0000    89      520.0000      512.0000  4356178    1.54%
  11800 10901      513.0000    82      520.0000      512.0000  4402393    1.54%
  11900 11001      513.0000    95      520.0000      512.0000  4470359    1.54%
  12000 11100      513.0000    91      520.0000      512.0000  4499415    1.54%
Elapsed time = 5802.89 sec. (tree size = 279.34 MB, solutions = 40)
Nodefile size = 151.87 MB (110.93 MB after compression)
  12100 11200      513.0000    86      520.0000      512.0000  4535111    1.54%
  12200 11299      513.0000   101      520.0000      512.0000  4562948    1.54%
  12300 11399      519.0000    72      520.0000      512.0000  4575501    1.54%
  12400 11498      513.0000    89      520.0000      512.0000  4585136    1.54%
  12500 11598      513.0000    99      520.0000      512.0000  4625787    1.54%
  12600 11696      513.0000    96      520.0000      512.0000  4671698    1.54%
  12700 11796      513.0000    93      520.0000      512.0000  4716839    1.54%
  12800 11895      513.0000    87      520.0000      512.0000  4750984    1.54%
  12900 11995      513.0000    93      520.0000      512.0000  4778962    1.54%
  13000 12094      513.0000   102      520.0000      512.0000  4792053    1.54%
Elapsed time = 6289.19 sec. (tree size = 312.34 MB, solutions = 40)
Nodefile size = 185.30 MB (137.08 MB after compression)
  13100 12194      519.0000    58      520.0000      512.0000  4812626    1.54%
  13200 12293      513.0000   108      520.0000      512.0000  4821182    1.54%
  13300 12393      513.0000    91      520.0000      512.0000  4851452    1.54%
  13400 12492      513.0000    94      520.0000      512.0000  4887650    1.54%
  13500 12592      513.0000   100      520.0000      512.0000  4929267    1.54%
  13600 12691      513.0000   104      520.0000      512.0000  4964295    1.54%
  13700 12791      513.0000    94      520.0000      512.0000  5026696    1.54%
  13800 12890      513.0000    87      520.0000      512.0000  5056595    1.54%
  13900 12990      513.0000   101      520.0000      512.0000  5097730    1.54%
  14000 13089      513.0000    94      520.0000      512.0000  5128418    1.54%
Elapsed time = 6816.14 sec. (tree size = 346.48 MB, solutions = 40)
Nodefile size = 218.67 MB (163.27 MB after compression)
  14100 13189      513.0000    94      520.0000      512.0000  5175918    1.54%
  14200 13288      513.0000    92      520.0000      512.0000  5211668    1.54%
  14300 13388      513.0000    94      520.0000      512.0000  5277828    1.54%
  14400 13487      513.0000    94      520.0000      512.0000  5316846    1.54%
  14500 13587      513.0000   102      520.0000      512.0000  5348767    1.54%
  14600 13686      513.0000   105      520.0000      512.0000  5385424    1.54%

Cover cuts applied:  1768
Mixed integer rounding cuts applied:  17

Solution pool: 40 solutions saved.

MIP - Time limit exceeded, integer feasible:  Objective = 5.2000000000e+002
Current MIP best bound = 5.1200000000e+002 (gap = 8, 1.54%)
Solution time = 7200.06 sec.  Iterations = 5402075  Nodes = 14642 (13727)


Incumbent solution
Variable Name           Solution Value
Cmax                        520.000000
X_1_49                        1.000000
X_2_15                        1.000000
X_3_10                        1.000000
X_4_29                        1.000000
X_5_35                        1.000000
X_6_4                         1.000000
X_7_32                        1.000000
X_8_8                         1.000000
X_9_13                        1.000000
X_10_19                       1.000000
X_11_19                       1.000000
X_12_14                       1.000000
X_13_45                       1.000000
X_14_48                       1.000000
X_15_1                        1.000000
X_16_26                       1.000000
X_17_28                       1.000000
X_18_27                       1.000000
X_19_8                        1.000000
X_20_1                        1.000000
X_21_35                       1.000000
X_22_13                       1.000000
X_23_26                       1.000000
X_24_40                       1.000000
X_25_48                       1.000000
X_26_23                       1.000000
X_27_37                       1.000000
X_28_36                       1.000000
X_29_12                       1.000000
X_30_7                        1.000000
X_31_8                        1.000000
X_32_31                       1.000000
X_33_7                        1.000000
X_34_5                        1.000000
X_35_30                       1.000000
X_36_47                       1.000000
X_37_45                       1.000000
X_38_38                       1.000000
X_39_22                       1.000000
X_40_15                       1.000000
X_41_38                       1.000000
X_42_25                       1.000000
X_43_28                       1.000000
X_44_45                       1.000000
X_45_23                       1.000000
X_46_43                       1.000000
X_47_33                       1.000000
X_48_32                       1.000000
X_49_43                       1.000000
X_50_2                        1.000000
X_51_40                       1.000000
X_52_1                        1.000000
X_53_31                       1.000000
X_54_46                       1.000000
X_55_47                       1.000000
X_56_26                       1.000000
X_57_36                       1.000000
X_58_46                       1.000000
X_59_21                       1.000000
X_60_7                        1.000000
X_61_50                       1.000000
X_62_16                       1.000000
X_63_50                       1.000000
X_64_43                       1.000000
X_65_31                       1.000000
X_66_10                       1.000000
X_67_13                       1.000000
X_68_50                       1.000000
X_69_22                       1.000000
X_70_31                       1.000000
X_71_15                       1.000000
X_72_25                       1.000000
X_73_47                       1.000000
X_74_16                       1.000000
X_75_37                       1.000000
X_76_2                        1.000000
X_77_45                       1.000000
X_78_2                        1.000000
X_79_22                       1.000000
X_80_19                       1.000000
X_81_44                       1.000000
X_82_30                       1.000000
X_83_2                        1.000000
X_84_29                       1.000000
X_85_45                       1.000000
X_86_23                       1.000000
X_87_36                       1.000000
X_88_9                        1.000000
X_89_39                       1.000000
X_90_29                       1.000000
X_91_22                       1.000000
X_92_28                       1.000000
X_93_27                       1.000000
X_94_41                       1.000000
X_95_34                       1.000000
X_96_15                       1.000000
X_97_32                       1.000000
X_98_3                        1.000000
X_99_24                       1.000000
X_100_44                      1.000000
X_101_33                      1.000000
X_102_16                      1.000000
X_103_42                      1.000000
X_104_49                      1.000000
X_105_34                      1.000000
X_106_34                      1.000000
X_107_9                       1.000000
X_108_4                       1.000000
X_109_9                       1.000000
X_110_13                      1.000000
X_111_21                      1.000000
X_112_42                      1.000000
X_113_32                      1.000000
X_114_41                      1.000000
X_115_16                      1.000000
X_116_34                      1.000000
X_117_23                      1.000000
X_118_16                      1.000000
X_119_5                       1.000000
X_120_44                      1.000000
X_121_43                      1.000000
X_122_1                       1.000000
X_123_48                      1.000000
X_124_12                      1.000000
X_125_21                      1.000000
X_126_27                      1.000000
X_127_32                      1.000000
X_128_34                      1.000000
X_129_39                      1.000000
X_130_30                      1.000000
X_131_6                       1.000000
X_132_29                      1.000000
X_133_42                      1.000000
X_134_17                      1.000000
X_135_38                      1.000000
X_136_28                      1.000000
X_137_6                       1.000000
X_138_3                       1.000000
X_139_5                       1.000000
X_140_31                      1.000000
X_141_23                      1.000000
X_142_42                      1.000000
X_143_21                      1.000000
X_144_41                      1.000000
X_145_42                      1.000000
X_146_34                      1.000000
X_147_5                       1.000000
X_148_4                       1.000000
X_149_20                      1.000000
X_150_50                      1.000000
X_151_45                      1.000000
X_152_21                      1.000000
X_153_11                      1.000000
X_154_27                      1.000000
X_155_3                       1.000000
X_156_14                      1.000000
X_157_30                      1.000000
X_158_1                       1.000000
X_159_23                      1.000000
X_160_46                      1.000000
X_161_15                      1.000000
X_162_45                      1.000000
X_163_15                      1.000000
X_164_35                      1.000000
X_165_28                      1.000000
X_166_31                      1.000000
X_167_45                      1.000000
X_168_39                      1.000000
X_169_36                      1.000000
X_170_6                       1.000000
X_171_26                      1.000000
X_172_17                      1.000000
X_173_29                      1.000000
X_174_49                      1.000000
X_175_18                      1.000000
X_176_28                      1.000000
X_177_47                      1.000000
X_178_21                      1.000000
X_179_49                      1.000000
X_180_23                      1.000000
X_181_25                      1.000000
X_182_38                      1.000000
X_183_36                      1.000000
X_184_25                      1.000000
X_185_50                      1.000000
X_186_28                      1.000000
X_187_8                       1.000000
X_188_40                      1.000000
X_189_5                       1.000000
X_190_9                       1.000000
X_191_4                       1.000000
X_192_8                       1.000000
X_193_17                      1.000000
X_194_19                      1.000000
X_195_48                      1.000000
X_196_12                      1.000000
X_197_23                      1.000000
X_198_18                      1.000000
X_199_11                      1.000000
X_200_18                      1.000000
X_201_30                      1.000000
X_202_31                      1.000000
X_203_32                      1.000000
X_204_9                       1.000000
X_205_15                      1.000000
X_206_30                      1.000000
X_207_23                      1.000000
X_208_37                      1.000000
X_209_26                      1.000000
X_210_45                      1.000000
X_211_30                      1.000000
X_212_30                      1.000000
X_213_44                      1.000000
X_214_22                      1.000000
X_215_28                      1.000000
X_216_16                      1.000000
X_217_12                      1.000000
X_218_23                      1.000000
X_219_25                      1.000000
X_220_32                      1.000000
X_221_5                       1.000000
X_222_31                      1.000000
X_223_21                      1.000000
X_224_7                       1.000000
X_225_42                      1.000000
X_226_2                       1.000000
X_227_17                      1.000000
X_228_2                       1.000000
X_229_50                      1.000000
X_230_4                       1.000000
X_231_44                      1.000000
X_232_49                      1.000000
X_233_20                      1.000000
X_234_50                      1.000000
X_235_36                      1.000000
X_236_22                      1.000000
X_237_22                      1.000000
X_238_5                       1.000000
X_239_39                      1.000000
X_240_38                      1.000000
X_241_18                      1.000000
X_242_32                      1.000000
X_243_3                       1.000000
X_244_41                      1.000000
X_245_21                      1.000000
X_246_21                      1.000000
X_247_19                      1.000000
X_248_9                       1.000000
X_249_35                      1.000000
X_250_23                      1.000000
X_251_47                      1.000000
X_252_21                      1.000000
X_253_8                       1.000000
X_254_20                      1.000000
X_255_38                      1.000000
X_256_39                      1.000000
X_257_36                      1.000000
X_258_23                      1.000000
X_259_19                      1.000000
X_260_16                      1.000000
X_261_42                      1.000000
X_262_34                      1.000000
X_263_13                      1.000000
X_264_25                      1.000000
X_265_16                      1.000000
X_266_34                      1.000000
X_267_19                      1.000000
X_268_32                      1.000000
X_269_15                      1.000000
X_270_36                      1.000000
X_271_39                      1.000000
X_272_43                      1.000000
X_273_21                      1.000000
X_274_25                      1.000000
X_275_34                      1.000000
X_276_27                      1.000000
X_277_9                       1.000000
X_278_1                       1.000000
X_279_3                       1.000000
X_280_22                      1.000000
X_281_16                      1.000000
X_282_33                      1.000000
X_283_34                      1.000000
X_284_25                      1.000000
X_285_46                      1.000000
X_286_17                      1.000000
X_287_26                      1.000000
X_288_3                       1.000000
X_289_15                      1.000000
X_290_46                      1.000000
X_291_1                       1.000000
X_292_10                      1.000000
X_293_7                       1.000000
X_294_50                      1.000000
X_295_16                      1.000000
X_296_39                      1.000000
X_297_26                      1.000000
X_298_11                      1.000000
X_299_25                      1.000000
X_300_37                      1.000000
X_301_27                      1.000000
X_302_2                       1.000000
X_303_16                      1.000000
X_304_24                      1.000000
X_305_31                      1.000000
X_306_19                      1.000000
X_307_47                      1.000000
X_308_41                      1.000000
X_309_39                      1.000000
X_310_18                      1.000000
X_311_50                      1.000000
X_312_22                      1.000000
X_313_43                      1.000000
X_314_44                      1.000000
X_315_48                      1.000000
X_316_8                       1.000000
X_317_37                      1.000000
X_318_32                      1.000000
X_319_43                      1.000000
X_320_31                      1.000000
X_321_20                      1.000000
X_322_29                      1.000000
X_323_2                       1.000000
X_324_29                      1.000000
X_325_28                      1.000000
X_326_1                       1.000000
X_327_24                      1.000000
X_328_3                       1.000000
X_329_38                      1.000000
X_330_34                      1.000000
X_331_49                      1.000000
X_332_19                      1.000000
X_333_22                      1.000000
X_334_6                       1.000000
X_335_6                       1.000000
X_336_24                      1.000000
X_337_20                      1.000000
X_338_25                      1.000000
X_339_20                      1.000000
X_340_14                      1.000000
X_341_12                      1.000000
X_342_18                      1.000000
X_343_31                      1.000000
X_344_10                      1.000000
X_345_14                      1.000000
X_346_37                      1.000000
X_347_16                      1.000000
X_348_21                      1.000000
X_349_43                      1.000000
X_350_26                      1.000000
X_351_17                      1.000000
X_352_11                      1.000000
X_353_39                      1.000000
X_354_48                      1.000000
X_355_10                      1.000000
X_356_38                      1.000000
X_357_43                      1.000000
X_358_41                      1.000000
X_359_26                      1.000000
X_360_19                      1.000000
X_361_30                      1.000000
X_362_32                      1.000000
X_363_33                      1.000000
X_364_40                      1.000000
X_365_14                      1.000000
X_366_17                      1.000000
X_367_47                      1.000000
X_368_12                      1.000000
X_369_3                       1.000000
X_370_33                      1.000000
X_371_37                      1.000000
X_372_29                      1.000000
X_373_8                       1.000000
X_374_25                      1.000000
X_375_29                      1.000000
X_376_24                      1.000000
X_377_22                      1.000000
X_378_17                      1.000000
X_379_7                       1.000000
X_380_44                      1.000000
X_381_35                      1.000000
X_382_19                      1.000000
X_383_10                      1.000000
X_384_5                       1.000000
X_385_4                       1.000000
X_386_4                       1.000000
X_387_50                      1.000000
X_388_35                      1.000000
X_389_46                      1.000000
X_390_49                      1.000000
X_391_18                      1.000000
X_392_35                      1.000000
X_393_14                      1.000000
X_394_11                      1.000000
X_395_45                      1.000000
X_396_49                      1.000000
X_397_31                      1.000000
X_398_47                      1.000000
X_399_36                      1.000000
X_400_35                      1.000000
X_401_7                       1.000000
X_402_41                      1.000000
X_403_40                      1.000000
X_404_27                      1.000000
X_405_26                      1.000000
X_406_28                      1.000000
X_407_43                      1.000000
X_408_4                       1.000000
X_409_2                       1.000000
X_410_48                      1.000000
X_411_11                      1.000000
X_412_5                       1.000000
X_413_3                       1.000000
X_414_6                       1.000000
X_415_48                      1.000000
X_416_34                      1.000000
X_417_40                      1.000000
X_418_17                      1.000000
X_419_12                      1.000000
X_420_43                      1.000000
X_421_48                      1.000000
X_422_12                      1.000000
X_423_45                      1.000000
X_424_32                      1.000000
X_425_32                      1.000000
X_426_32                      1.000000
X_427_19                      1.000000
X_428_1                       1.000000
X_429_24                      1.000000
X_430_21                      1.000000
X_431_41                      1.000000
X_432_6                       1.000000
X_433_28                      1.000000
X_434_45                      1.000000
X_435_31                      1.000000
X_436_7                       1.000000
X_437_37                      1.000000
X_438_17                      1.000000
X_439_33                      1.000000
X_440_38                      1.000000
X_441_6                       1.000000
X_442_21                      1.000000
X_443_6                       1.000000
X_444_29                      1.000000
X_445_30                      1.000000
X_446_37                      1.000000
X_447_19                      1.000000
X_448_20                      1.000000
X_449_31                      1.000000
X_450_17                      1.000000
X_451_10                      1.000000
X_452_4                       1.000000
X_453_44                      1.000000
X_454_3                       1.000000
X_455_40                      1.000000
X_456_49                      1.000000
X_457_5                       1.000000
X_458_36                      1.000000
X_459_45                      1.000000
X_460_4                       1.000000
X_461_36                      1.000000
X_462_35                      1.000000
X_463_13                      1.000000
X_464_37                      1.000000
X_465_43                      1.000000
X_466_36                      1.000000
X_467_33                      1.000000
X_468_8                       1.000000
X_469_13                      1.000000
X_470_25                      1.000000
X_471_46                      1.000000
X_472_5                       1.000000
X_473_5                       1.000000
X_474_11                      1.000000
X_475_10                      1.000000
X_476_15                      1.000000
X_477_7                       1.000000
X_478_18                      1.000000
X_479_6                       1.000000
X_480_14                      1.000000
X_481_45                      1.000000
X_482_45                      1.000000
X_483_33                      1.000000
X_484_39                      1.000000
X_485_35                      1.000000
X_486_31                      1.000000
X_487_4                       1.000000
X_488_5                       1.000000
X_489_37                      1.000000
X_490_44                      1.000000
X_491_2                       1.000000
X_492_38                      1.000000
X_493_13                      1.000000
X_494_27                      1.000000
X_495_21                      1.000000
X_496_20                      1.000000
X_497_39                      1.000000
X_498_15                      1.000000
X_499_15                      1.000000
X_500_40                      1.000000
All other variables in the range 1-25001 are 0.
